%chk=test002
#p test geom=modela hf pop=(full,orbitals) output=matrix

test002: HF/STO-3G calculation of H2O.

0  1
o h h

test002.mat

